100
120
100
99
98
98
98
98
97
96
95
95
93
92
92
91
90
90
89
88
88
87
85
85
85
85
84
84
83
83
83
82
81
80
79
79
79
78
77
74
74
73
72
71
64
61
60
60
59
58
57
57
57
54
54
54
52
51
50
50
49
49
49
48
48
47
47
47
46
45
45
44
43
41
41
40
39
36
36
35
34
34
34
32
31
30
29
29
28
28
28
27
26
26
25
25
24
23
23
22
22
20
